c   #vars: 80   #clauses: 361   #literals: 1002
c 
p cnf 80 361
-1 -2 0
-3 -4 0
-6 -7 0
-8 -9 0
-10 -11 0
15 48 49 -57 0
-13 -14 0
-15 18 19 32 0
-16 -17 0
-18 -19 0
-20 -21 0
-22 -23 0
6 7 30 31 0
6 7 55 56 0
-24 -25 0
-26 -27 0
-28 -29 0
-30 -31 0
41 55 56 -62 0
-33 -34 0
-35 -36 0
-37 -38 0
-39 -40 0
52 66 67 -70 0
8 9 68 69 0
6 7 53 54 0
24 25 39 40 0
-42 -43 0
-44 -45 0
-46 -47 0
-48 -49 0
-50 -51 0
20 21 -49 61 0
-53 -54 0
-55 -56 0
-57 -58 0
-59 -60 0
-35 42 43 76 0
-62 -63 0
1 2 30 31 0
-64 -65 0
-66 -67 0
24 25 77 78 0
5 -21 61 -62 0
-68 -69 0
-70 -71 0
-72 -73 0
-74 -75 0
-3 16 17 79 0
5 -49 61 -62 0
-77 -78 0
39 40 -51 80 0
26 27 30 31 0
-1 -28 0
-2 -29 0
26 27 44 45 0
-1 -30 0
-2 -31 0
-1 -42 0
-2 -43 0
10 11 48 49 0
-1 -46 0
-2 -47 0
33 34 66 67 0
18 19 46 47 0
12 50 51 -68 0
53 54 77 78 0
-1 -72 0
-2 -73 0
5 -61 62 63 0
39 40 -43 80 0
-2 -79 0
-3 -33 0
-4 -34 0
5 35 36 -62 0
-3 -70 0
-4 -71 0
24 25 68 69 0
-3 -74 0
-4 -75 0
22 23 74 75 0
-43 50 51 80 0
-4 -79 0
12 -50 68 69 0
-5 -36 0
15 -32 57 58 0
-13 35 36 76 0
24 25 33 34 0
12 -39 68 69 0
-13 42 43 76 0
-5 -63 0
13 14 44 45 0
-6 -30 0
-7 -31 0
18 19 74 75 0
-6 -35 0
-7 -36 0
53 54 59 60 0
-6 -53 0
-7 -54 0
28 29 57 58 0
-6 -55 0
-7 -56 0
18 19 77 78 0
-6 -62 0
-7 -63 0
8 9 70 71 0
-6 -66 0
-7 -67 0
-8 -35 0
-9 -36 0
44 45 74 75 0
-16 52 66 67 0
-9 -41 0
12 39 40 -68 0
-8 -42 0
-9 -43 0
52 -66 70 71 0
-8 -68 0
-9 -69 0
1 2 -16 79 0
-8 -70 0
-9 -71 0
35 36 68 69 0
-10 -32 0
-8 41 55 56 0
5 -35 62 63 0
-10 -48 0
-11 -49 0
46 47 68 69 0
-10 -59 0
-11 -60 0
15 -48 57 58 0
-10 -70 0
-11 -71 0
16 17 42 43 0
15 -32 48 49 0
-12 -40 0
53 54 62 63 0
-8 41 62 63 0
-12 -51 0
1 2 -3 79 0
41 -55 62 63 0
-12 -69 0
-13 -28 0
-14 -29 0
16 17 50 51 0
-13 -37 0
-14 -38 0
42 43 -51 80 0
-13 -44 0
-14 -45 0
33 34 74 75 0
12 -39 50 51 0
39 40 66 67 0
-1 16 17 79 0
-14 -76 0
-11 15 32 -57 0
-11 18 19 32 0
8 9 41 -62 0
20 21 59 60 0
10 11 -19 32 0
-15 -49 0
24 25 64 65 0
10 11 -15 32 0
-15 -58 0
26 27 50 51 0
-16 -37 0
-17 -38 0
-40 42 43 80 0
-16 -42 0
-17 -43 0
6 7 62 63 0
-16 -50 0
-17 -51 0
-5 20 21 61 0
-17 -52 0
-40 50 51 80 0
-17 -79 0
22 23 57 58 0
-18 -32 0
8 9 41 -55 0
-18 -37 0
-19 -38 0
-18 -46 0
-19 -47 0
20 21 72 73 0
-18 -64 0
-19 -65 0
-18 -74 0
-19 -75 0
22 23 42 43 0
-18 -77 0
-19 -78 0
18 19 37 38 0
-20 -39 0
-21 -40 0
13 14 37 38 0
22 23 72 73 0
-20 -59 0
-21 -60 0
37 38 62 63 0
-20 -61 0
13 14 -42 76 0
16 17 37 38 0
-20 -62 0
-21 -63 0
42 43 66 67 0
-20 -72 0
-21 -73 0
-22 -42 0
-23 -43 0
-11 15 32 -48 0
-22 -57 0
-23 -58 0
-22 -72 0
-23 -73 0
26 27 33 34 0
-22 -74 0
-23 -75 0
30 31 72 73 0
-24 -28 0
-25 -29 0
39 40 64 65 0
-24 -33 0
-25 -34 0
24 25 35 36 0
-24 -35 0
-25 -36 0
1 2 42 43 0
-24 -39 0
-25 -40 0
35 36 64 65 0
-24 -62 0
-25 -63 0
1 2 28 29 0
-24 -64 0
-25 -65 0
6 7 35 36 0
-24 -68 0
-25 -69 0
-24 -77 0
-25 -78 0
13 14 28 29 0
-26 -30 0
-27 -31 0
-26 -33 0
-27 -34 0
30 31 62 63 0
-26 -44 0
-27 -45 0
33 34 68 69 0
-26 -50 0
-27 -51 0
8 9 35 36 0
-26 -64 0
-27 -65 0
44 45 68 69 0
-28 -55 0
-29 -56 0
-28 -57 0
-29 -58 0
8 9 42 43 0
-30 -62 0
-31 -63 0
35 36 57 58 0
-30 -72 0
-31 -73 0
5 -35 -49 61 0
-33 -57 0
-34 -58 0
48 49 70 71 0
-33 -66 0
-34 -67 0
20 21 39 40 0
-33 -68 0
-34 -69 0
5 35 36 -61 0
-33 -74 0
-34 -75 0
-35 -57 0
-36 -58 0
1 2 72 73 0
-35 -64 0
-36 -65 0
24 25 62 63 0
-35 -68 0
-36 -69 0
20 21 62 63 0
3 4 -16 79 0
-36 -76 0
-37 -59 0
-38 -60 0
37 38 64 65 0
-37 -62 0
-38 -63 0
18 19 64 65 0
-37 -64 0
-38 -65 0
1 2 46 47 0
-39 -64 0
-40 -65 0
10 11 70 71 0
-39 -66 0
-40 -67 0
24 25 28 29 0
-39 -77 0
-40 -78 0
-39 -80 0
5 -21 -35 61 0
16 17 52 -70 0
-41 -56 0
12 39 40 -50 0
16 17 52 -66 0
-41 -63 0
3 4 74 75 0
35 36 -42 76 0
3 4 70 71 0
-42 -66 0
-43 -67 0
33 34 57 58 0
-1 3 4 79 0
-43 -76 0
6 7 66 67 0
-42 -80 0
44 45 55 56 0
-44 -55 0
-45 -56 0
28 29 55 56 0
-44 -68 0
-45 -69 0
46 47 55 56 0
-44 -74 0
-45 -75 0
15 -19 32 -48 0
-46 -55 0
-47 -56 0
-46 -68 0
-47 -69 0
-48 -61 0
13 14 -35 76 0
15 -19 32 -57 0
-48 -70 0
-49 -71 0
3 4 33 34 0
-50 -80 0
37 38 59 60 0
-21 48 49 61 0
-52 -67 0
39 40 77 78 0
-5 48 49 61 0
-52 -71 0
10 11 59 60 0
-53 -59 0
-54 -60 0
26 27 64 65 0
-53 -62 0
-54 -63 0
-16 52 70 71 0
-53 -77 0
-54 -78 0
